banan
10
-1 1 10 10 10 10 10 10 10 10
10  -1 1 48 48  8  8  5  5 10
10 10  -1 1 72 48 48 24 24  3
10 10 74  -1 1  6  6 12 12 48
10 48 74 10  -1 1  6 12 12 48
10  8 50  6  6  -1 1  8  8  8
10  8 50  6  6 10  -1 1  8  8
10  5 26 12 12  8  8  -1 1  5
10  5 26 12 12  8  8 10  -1 1
 1 10  3 48 48  8  8  5  5  -1 